All_SAT/1.cnf
p cnf 24  58          
c M = 6 inputs : 1..6
c xor auxilaries: 7..17
c N = 7 outputs: 18..24
c 7 = 2 xor 6:
7 2 -6 0
7 -2 6 0
-7 2 6 0
-7 -2 -6 0
c 18 = 7
18 -7 0
-18 7 0
c 8 = 1 xor 3:
8 1 -3 0
8 -1 3 0
-8 1 3 0
-8 -1 -3 0
c 9 = 8 xor 5:
9 8 -5 0
9 -8 5 0
-9 8 5 0
-9 -8 -5 0
c 19 = 9
19 -9 0
-19 9 0
c 20 = 1
20 -1 0
-20 1 0
c 10 = 1 xor 3:
10 1 -3 0
10 -1 3 0
-10 1 3 0
-10 -1 -3 0
c 11 = 10 xor 4:
11 10 -4 0
11 -10 4 0
-11 10 4 0
-11 -10 -4 0
c 12 = 11 xor 5:
12 11 -5 0
12 -11 5 0
-12 11 5 0
-12 -11 -5 0
c 21 = 12
21 -12 0
-21 12 0
c 13 = 1 xor 2:
13 1 -2 0
13 -1 2 0
-13 1 2 0
-13 -1 -2 0
c 14 = 13 xor 3:
14 13 -3 0
14 -13 3 0
-14 13 3 0
-14 -13 -3 0
c 15 = 14 xor 4:
15 14 -4 0
15 -14 4 0
-15 14 4 0
-15 -14 -4 0
c 16 = 15 xor 6:
16 15 -6 0
16 -15 6 0
-16 15 6 0
-16 -15 -6 0
c 22 = 16
22 -16 0
-22 16 0
c 23 = 4
23 -4 0
-23 4 0
c 17 = 1 xor 3:
17 1 -3 0
17 -1 3 0
-17 1 3 0
-17 -1 -3 0
c 24 = 17
24 -17 0
-24 17 0
